param set_len = 22;
param target_sum = 239126927;
param values := [1] 14538783 [2] 16983769 [3] 26578251 [4] 27535041 [5] 14210400 [6] 12465027 [7] 15368077 [8] 30100002 [9] 3214920 [10] 33513558 [11] 12769116 [12] 29338019 [13] 26649199 [14] 23154103 [15] 29812834 [16] 7981008 [17] 21087985 [18] 19022260 [19] 24654287 [20] 32659152 [21] 21959176 [22] 15892773 ;
